Traveling Salesman Problem/TSP_generados/Aleatorio1621104001_18.tsp
NAME: Aleatorio1621104001_18.tsp
COMMENT: Randomly generated scenario
TYPE: TSP
DIMENSION: 18
EDGE_WEIGHT_TYPE: ATT
NODE_COORD_SECTION
1 28.7 41.54
2 12.36 23.37
3 15.41 41.43
4 40.72 19.72
5 19.91 20.8
6 33.47 46.91
7 14.02 43.44
8 26.46 39.73
9 33.16 46.97
10 1.06 13.04
11 45.54 29.59
12 0.37 7.34
13 14.24 14.45
14 13.29 12.37
15 3.32 7.8
16 14.53 48.39
17 48.0 16.41
18 35.39 46.62
