Traveling Salesman Problem/TSP_generados/Aleatorio1621104001_18.opt.tour
NAME: Aleatorio1621104001_18.opt.tour
COMMENT: Optimal solution for Aleatorio1621104001_18 (160.51441662720694)
TYPE: TOUR
DIMENSION: 18
TOUR_SECTION
1 8 16 7 3 2 10 12 15 14 13 5 4 17 11 18 6 9
-1
EOF
